GLPSOL--GLPK LP/MIP Solver 5.0
Parameter(s) specified in the command line:
 --lp ../modeles/15_184.lp --log 15_184.log
Reading problem data from '../modeles/15_184.lp'...
2821 rows, 5550 columns, 19365 non-zeros
2760 integer variables, all of which are binary
8392 lines were read
GLPK Integer Optimizer 5.0
2821 rows, 5550 columns, 19365 non-zeros
2760 integer variables, all of which are binary
Preprocessing...
2730 constraint coefficient(s) were reduced
2821 rows, 5535 columns, 19350 non-zeros
2760 integer variables, all of which are binary
Scaling...
 A: min|aij| =  4.726e-04  max|aij| =  4.000e+00  ratio =  8.464e+03
GM: min|aij| =  1.043e-01  max|aij| =  9.592e+00  ratio =  9.200e+01
EQ: min|aij| =  1.087e-02  max|aij| =  1.000e+00  ratio =  9.200e+01
2N: min|aij| =  7.561e-03  max|aij| =  1.727e+00  ratio =  2.284e+02
Constructing initial basis...
Size of triangular part is 2821
Solving LP relaxation...
GLPK Simplex Optimizer 5.0
2821 rows, 5535 columns, 19350 non-zeros
      0: obj =   3.000000000e+01 inf =   7.450e+01 (31)
    194: obj =   1.016368256e-02 inf =   0.000e+00 (0)
*   710: obj =  -3.871455577e+00 inf =   1.359e-13 (0)
OPTIMAL LP SOLUTION FOUND
Integer optimization begins...
Long-step dual simplex will be used
+   710: mip =     not found yet >=              -inf        (1; 0)
+   741: >>>>>  -3.871304348e+00 >=  -3.871455577e+00 < 0.1% (4; 0)
+   743: >>>>>  -3.871455577e+00 >=  -3.871455577e+00 < 0.1% (3; 3)
+   743: mip =  -3.871455577e+00 >=     tree is empty   0.0% (0; 9)
INTEGER OPTIMAL SOLUTION FOUND
Time used:   0.1 secs
Memory used: 8.1 Mb (8497065 bytes)
